 vasp.5.3.3 18Dez12 (build Oct 11 2014 18:16:19) complex

 executed on             LinuxIFC date 2017.01.05  17:32:51

 INCAR:
 POTCAR:    PAW_PBE C 08Apr2002

 POTCAR:    PAW_PBE C 08Apr2002
   VRHFIN =C: s2p2

   TITEL  = PAW_PBE C 08Apr2002
   POMASS =   12.011; ZVAL   =    4.000    mass and valenz
   ENMAX  =  400.000; ENMIN  =  300.000 eV

  PAW_PBE C 08Apr2002                   :

 POSCAR: Graphene
  positions in direct lattice
 exchange correlation table for  LEXCH =        8
   RHO(1)=    0.500       N(1)  =     2000
   RHO(2)=  100.500       N(2)  =     4000

 ion  position               nearest neighbor table
   1  0.000  0.000  0.000-   2 1.42   2 1.42   2 1.42
   2  0.333  0.667  0.000-   1 1.42   1 1.42   1 1.42

IMPORTANT INFORMATION: All symmetrisations will be switched off!
NOSYMM: (Re-)initialisation of all symmetry stuff for point group C_1.

 KPOINTS: Automatic mesh

Automatic generation of k-mesh.
Space group operators:
 irot     det(A)      alpha        n_x        n_y        n_z      tau_x      tau_y      tau_z
    1     1.000000     0.000000     1.000000     0.000000     0.000000     0.000000     0.000000     0.000000

 Subroutine IBZKPT returns following result:

 Found     74 irreducible k-points:

 Following reciprocal coordinates:
            Coordinates               Weight
  0.000000  0.000000  0.000000      1.000000
  0.083333  0.000000  0.000000      2.000000
  0.166667 -0.000000  0.000000      2.000000
  0.250000 -0.000000  0.000000      2.000000
  0.333333  0.000000  0.000000      2.000000
  0.416667 -0.000000  0.000000      2.000000
  0.500000 -0.000000  0.000000      1.000000
  0.000000  0.083333  0.000000      2.000000
  0.083333  0.083333  0.000000      2.000000
  0.166667  0.083333  0.000000      2.000000
  0.250000  0.083333  0.000000      2.000000
  0.333333  0.083333  0.000000      2.000000
  0.416667  0.083333  0.000000      2.000000
  0.500000  0.083333  0.000000      2.000000
 -0.416667  0.083333  0.000000      2.000000
 -0.333333  0.083333  0.000000      2.000000
 -0.250000  0.083333  0.000000      2.000000
 -0.166667  0.083333  0.000000      2.000000
 -0.083333  0.083333  0.000000      2.000000
 -0.000000  0.166667  0.000000      2.000000
  0.083333  0.166667  0.000000      2.000000
  0.166667  0.166667  0.000000      2.000000
  0.250000  0.166667  0.000000      2.000000
  0.333333  0.166667  0.000000      2.000000
  0.416667  0.166667  0.000000      2.000000
  0.500000  0.166667  0.000000      2.000000
 -0.416667  0.166667  0.000000      2.000000
 -0.333333  0.166667  0.000000      2.000000
 -0.250000  0.166667  0.000000      2.000000
 -0.166667  0.166667  0.000000      2.000000
 -0.083333  0.166667  0.000000      2.000000
 -0.000000  0.250000  0.000000      2.000000
  0.083333  0.250000  0.000000      2.000000
  0.166667  0.250000  0.000000      2.000000
  0.250000  0.250000  0.000000      2.000000
  0.333333  0.250000  0.000000      2.000000
  0.416667  0.250000  0.000000      2.000000
  0.500000  0.250000  0.000000      2.000000
 -0.416667  0.250000  0.000000      2.000000
 -0.333333  0.250000  0.000000      2.000000
 -0.250000  0.250000  0.000000      2.000000
 -0.166667  0.250000  0.000000      2.000000
 -0.083333  0.250000  0.000000      2.000000
  0.000000  0.333333  0.000000      2.000000
  0.083333  0.333333  0.000000      2.000000
  0.166667  0.333333  0.000000      2.000000
  0.250000  0.333333  0.000000      2.000000
  0.333333  0.333333  0.000000      2.000000
  0.416667  0.333333  0.000000      2.000000
  0.500000  0.333333  0.000000      2.000000
 -0.416667  0.333333  0.000000      2.000000
 -0.333333  0.333333  0.000000      2.000000
 -0.250000  0.333333  0.000000      2.000000
 -0.166667  0.333333  0.000000      2.000000
 -0.083333  0.333333  0.000000      2.000000
 -0.000000  0.416667  0.000000      2.000000
  0.083333  0.416667  0.000000      2.000000
  0.166667  0.416667  0.000000      2.000000
  0.250000  0.416667  0.000000      2.000000
  0.333333  0.416667  0.000000      2.000000
  0.416667  0.416667  0.000000      2.000000
  0.500000  0.416667  0.000000      2.000000
 -0.416667  0.416667  0.000000      2.000000
 -0.333333  0.416667  0.000000      2.000000
 -0.250000  0.416667  0.000000      2.000000
 -0.166667  0.416667  0.000000      2.000000
 -0.083333  0.416667  0.000000      2.000000
 -0.000000  0.500000  0.000000      1.000000
  0.083333  0.500000  0.000000      2.000000
  0.166667  0.500000  0.000000      2.000000
  0.250000  0.500000  0.000000      2.000000
  0.333333  0.500000  0.000000      2.000000
  0.416667  0.500000  0.000000      2.000000
  0.500000  0.500000  0.000000      1.000000

 Following cartesian coordinates:
            Coordinates               Weight
  0.000000  0.000000  0.000000      1.000000
  0.033875 -0.019558  0.000000      2.000000
  0.067751 -0.039116  0.000000      2.000000
  0.101626 -0.058674  0.000000      2.000000
  0.135501 -0.078232  0.000000      2.000000
  0.169377 -0.097790  0.000000      2.000000
  0.203252 -0.117348  0.000000      1.000000
  0.033875  0.019558  0.000000      2.000000
  0.067751  0.000000  0.000000      2.000000
  0.101626 -0.019558  0.000000      2.000000
  0.135501 -0.039116  0.000000      2.000000
  0.169377 -0.058674  0.000000      2.000000
  0.203252 -0.078232  0.000000      2.000000
  0.237127 -0.097790  0.000000      2.000000
 -0.135501  0.117348  0.000000      2.000000
 -0.101626  0.097790  0.000000      2.000000
 -0.067751  0.078232  0.000000      2.000000
 -0.033875  0.058674  0.000000      2.000000
  0.000000  0.039116  0.000000      2.000000
  0.067751  0.039116  0.000000      2.000000
  0.101626  0.019558  0.000000      2.000000
  0.135501  0.000000  0.000000      2.000000
  0.169377 -0.019558  0.000000      2.000000
  0.203252 -0.039116  0.000000      2.000000
  0.237127 -0.058674  0.000000      2.000000
  0.271003 -0.078232  0.000000      2.000000
 -0.101626  0.136906  0.000000      2.000000
 -0.067751  0.117348  0.000000      2.000000
 -0.033875  0.097790  0.000000      2.000000
  0.000000  0.078232  0.000000      2.000000
  0.033875  0.058674  0.000000      2.000000
  0.101626  0.058674  0.000000      2.000000
  0.135501  0.039116  0.000000      2.000000
  0.169377  0.019558  0.000000      2.000000
  0.203252  0.000000  0.000000      2.000000
  0.237127 -0.019558  0.000000      2.000000
  0.271003 -0.039116  0.000000      2.000000
  0.304878 -0.058674  0.000000      2.000000
 -0.067751  0.156463  0.000000      2.000000
 -0.033875  0.136906  0.000000      2.000000
  0.000000  0.117348  0.000000      2.000000
  0.033875  0.097790  0.000000      2.000000
  0.067751  0.078232  0.000000      2.000000
  0.135501  0.078232  0.000000      2.000000
  0.169377  0.058674  0.000000      2.000000
  0.203252  0.039116  0.000000      2.000000
  0.237127  0.019558  0.000000      2.000000
  0.271003  0.000000  0.000000      2.000000
  0.304878 -0.019558  0.000000      2.000000
  0.338753 -0.039116  0.000000      2.000000
 -0.033875  0.176021  0.000000      2.000000
  0.000000  0.156463  0.000000      2.000000
  0.033875  0.136906  0.000000      2.000000
  0.067751  0.117348  0.000000      2.000000
  0.101626  0.097790  0.000000      2.000000
  0.169377  0.097790  0.000000      2.000000
  0.203252  0.078232  0.000000      2.000000
  0.237127  0.058674  0.000000      2.000000
  0.271003  0.039116  0.000000      2.000000
  0.304878  0.019558  0.000000      2.000000
  0.338753  0.000000  0.000000      2.000000
  0.372629 -0.019558  0.000000      2.000000
  0.000000  0.195579  0.000000      2.000000
  0.033875  0.176021  0.000000      2.000000
  0.067751  0.156463  0.000000      2.000000
  0.101626  0.136906  0.000000      2.000000
  0.135501  0.117348  0.000000      2.000000
  0.203252  0.117348  0.000000      1.000000
  0.237127  0.097790  0.000000      2.000000
  0.271003  0.078232  0.000000      2.000000
  0.304878  0.058674  0.000000      2.000000
  0.338753  0.039116  0.000000      2.000000
  0.372629  0.019558  0.000000      2.000000
  0.406504  0.000000  0.000000      1.000000

 Subroutine IBZKPT_HF returns following result:

 Found    144 k-points in 1st BZ
 the following    144 k-points will be used (e.g. in the exchange kernel)
 Following reciprocal coordinates:   # in IRBZ
  0.000000  0.000000  0.000000       1 t-inv F
  0.083333  0.000000  0.000000       2 t-inv F
  0.166667 -0.000000  0.000000       3 t-inv F
  0.250000 -0.000000  0.000000       4 t-inv F
  0.333333  0.000000  0.000000       5 t-inv F
  0.416667 -0.000000  0.000000       6 t-inv F
  0.500000 -0.000000  0.000000       7 t-inv F
  0.000000  0.083333  0.000000       8 t-inv F
  0.083333  0.083333  0.000000       9 t-inv F
  0.166667  0.083333  0.000000      10 t-inv F
  0.250000  0.083333  0.000000      11 t-inv F
  0.333333  0.083333  0.000000      12 t-inv F
  0.416667  0.083333  0.000000      13 t-inv F
  0.500000  0.083333  0.000000      14 t-inv F
 -0.416667  0.083333  0.000000      15 t-inv F
 -0.333333  0.083333  0.000000      16 t-inv F
 -0.250000  0.083333  0.000000      17 t-inv F
 -0.166667  0.083333  0.000000      18 t-inv F
 -0.083333  0.083333  0.000000      19 t-inv F
 -0.000000  0.166667  0.000000      20 t-inv F
  0.083333  0.166667  0.000000      21 t-inv F
  0.166667  0.166667  0.000000      22 t-inv F
  0.250000  0.166667  0.000000      23 t-inv F
  0.333333  0.166667  0.000000      24 t-inv F
  0.416667  0.166667  0.000000      25 t-inv F
  0.500000  0.166667  0.000000      26 t-inv F
 -0.416667  0.166667  0.000000      27 t-inv F
 -0.333333  0.166667  0.000000      28 t-inv F
 -0.250000  0.166667  0.000000      29 t-inv F
 -0.166667  0.166667  0.000000      30 t-inv F
 -0.083333  0.166667  0.000000      31 t-inv F
 -0.000000  0.250000  0.000000      32 t-inv F
  0.083333  0.250000  0.000000      33 t-inv F
  0.166667  0.250000  0.000000      34 t-inv F
  0.250000  0.250000  0.000000      35 t-inv F
  0.333333  0.250000  0.000000      36 t-inv F
  0.416667  0.250000  0.000000      37 t-inv F
  0.500000  0.250000  0.000000      38 t-inv F
 -0.416667  0.250000  0.000000      39 t-inv F
 -0.333333  0.250000  0.000000      40 t-inv F
 -0.250000  0.250000  0.000000      41 t-inv F
 -0.166667  0.250000  0.000000      42 t-inv F
 -0.083333  0.250000  0.000000      43 t-inv F
  0.000000  0.333333  0.000000      44 t-inv F
  0.083333  0.333333  0.000000      45 t-inv F
  0.166667  0.333333  0.000000      46 t-inv F
  0.250000  0.333333  0.000000      47 t-inv F
  0.333333  0.333333  0.000000      48 t-inv F
  0.416667  0.333333  0.000000      49 t-inv F
  0.500000  0.333333  0.000000      50 t-inv F
 -0.416667  0.333333  0.000000      51 t-inv F
 -0.333333  0.333333  0.000000      52 t-inv F
 -0.250000  0.333333  0.000000      53 t-inv F
 -0.166667  0.333333  0.000000      54 t-inv F
 -0.083333  0.333333  0.000000      55 t-inv F
 -0.000000  0.416667  0.000000      56 t-inv F
  0.083333  0.416667  0.000000      57 t-inv F
  0.166667  0.416667  0.000000      58 t-inv F
  0.250000  0.416667  0.000000      59 t-inv F
  0.333333  0.416667  0.000000      60 t-inv F
[...]
 -0.166667 -0.416667  0.000000      58 t-inv T
 -0.250000 -0.416667  0.000000      59 t-inv T
[...]
  Alpha Z     3.13487     3.13487     3.13487
  Ewald    1571.93792  1571.93792 -1841.46645     0.00000     0.00000     0.00000
  Hartree  1538.12318  1538.12318 -1526.85609    -0.00000     0.00000     0.00000
  E(xc)     -29.75551   -29.75551   -30.87046     0.00000     0.00000     0.00000
  Local   -3195.58475 -3195.58468  3265.61771     0.00000    -0.00000    -0.00000
  n-local    -7.16103    -7.16104    -6.48189    -0.00000     0.00000    -0.00000
  augment    -0.78527    -0.78535    -0.72213     0.00000    -0.00000    -0.00000
  Kinetic   120.47006   120.47007   137.62182     0.00000    -0.00000     0.00000
  Fock        0.00000     0.00000     0.00000     0.00000     0.00000     0.00000
  Total       0.37947     0.37945    -0.02263     0.00000    -0.00000    -0.00000
  in kB       5.80033     5.80010    -0.34589     0.00000    -0.00000    -0.00000

 VOLUME and BASIS-vectors are now :
  energy-cutoff  :      800.00
  volume of cell :      104.82
      direct lattice vectors                 reciprocal lattice vectors
     1.230000000 -2.130422493  0.000000000     0.406504065 -0.234695231  0.000000000
     1.230000000  2.130422493  0.000000000     0.406504065  0.234695231  0.000000000
     0.000000000  0.000000000 20.000000000     0.000000000  0.000000000  0.050000000

[...]

 FORCES acting on ions
    electron-ion (+dipol)            ewald-force                    non-local-force                 convergence-correction
   -.244E-06 -.110E-05 -.345E-06   -.544E-14 0.998E-09 0.000E+00   -.353E-07 0.489E-05 0.159E-07   0.195E-06 -.115E-07 0.301E-06
   0.236E-06 0.187E-05 -.164E-06   0.705E-14 -.998E-09 0.000E+00   0.359E-07 -.709E-05 -.367E-07   -.190E-06 0.174E-07 0.194E-06
   -.755E-08 0.771E-06 -.509E-06   0.162E-14 0.679E-15 0.000E+00   0.552E-09 -.220E-05 -.208E-07   0.539E-08 0.592E-08 0.495E-06

 POSITION                                       TOTAL-FORCE (eV/Angst)
      0.00000      0.00000      0.00000        -0.000000      0.000004     -0.000000
      1.23000      0.71014      0.00000         0.000000     -0.000004      0.000000
    total drift:                               -0.000000     -0.000001     -0.000000

  FREE ENERGIE OF THE ION-ELECTRON SYSTEM (eV)
  free  energy   TOTEN  =       -18.46159239 eV

  energy  without entropy=      -18.46149514  energy(sigma->0) =      -18.46154377

Found     6 degrees of freedom:

        Directions for atom     1:

              1.0000000000000000      0.0000000000000000      0.0000000000000000
              0.0000000000000000      1.0000000000000000      0.0000000000000000
              0.0000000000000000      0.0000000000000000      1.0000000000000000

        Directions for atom     2:

              1.0000000000000000      0.0000000000000000      0.0000000000000000
              0.0000000000000000      1.0000000000000000      0.0000000000000000
              0.0000000000000000      0.0000000000000000      1.0000000000000000
        Strain: 6 additional degrees of freedom
 Finite differences:
   Step               POTIM =   1.500000000000000E-002
   Degrees of freedom DOF   =           12
 FEWALD executed in parallel

[...]

 d Force = 0.0000000E+00[ 0.000E+00, 0.000E+00]  d Energy =-0.5328131E-02 0.533E-02
 d Force = 0.0000000E+00[ 0.000E+00, 0.000E+00]  d Ewald  = 0.2320833E+02-0.232E+02

 Finite differences progress:
  Degree of freedom:   1/ 12
  Displacement:        1/  2
  Total:               1/ 24
 FEWALD executed in parallel

[...]

 d Force = 0.0000000E+00[ 0.000E+00, 0.000E+00]  d Energy =-0.1213009E-01 0.121E-01
 d Force = 0.0000000E+00[ 0.000E+00, 0.000E+00]  d Ewald  =-0.4716969E+02 0.472E+02

[...]

 d Force = 0.0000000E+00[ 0.000E+00, 0.000E+00]  d Energy = 0.1210049E-01-0.121E-01
 d Force = 0.0000000E+00[ 0.000E+00, 0.000E+00]  d Ewald  = 0.4716977E+02-0.472E+02

[...]

 d Force = 0.0000000E+00[ 0.000E+00, 0.000E+00]  d Energy = 0.1702710E-01-0.170E-01
 d Force = 0.0000000E+00[ 0.000E+00, 0.000E+00]  d Ewald  =-0.3660547E+01 0.366E+01

[...]

 d Force = 0.0000000E+00[ 0.000E+00, 0.000E+00]  d Energy =-0.4614788E-04 0.461E-04
 d Force = 0.0000000E+00[ 0.000E+00, 0.000E+00]  d Ewald  =-0.3839183E+00 0.384E+00

[...]

 d Force = 0.0000000E+00[ 0.000E+00, 0.000E+00]  d Energy = 0.1890536E-05-0.189E-05
 d Force = 0.0000000E+00[ 0.000E+00, 0.000E+00]  d Ewald  = 0.0000000E+00 0.000E+00

[...]

 d Force =-0.4966669E-02[-0.993E-02, 0.314E-08]  d Energy =-0.3883459E-02-0.108E-02
 d Force =-0.2015548E-01[-0.403E-01,-0.816E-16]  d Ewald  =-0.2015459E-01-0.891E-06

[...]

 d Force =-0.3158427E-06[-0.199E-01, 0.199E-01]  d Energy = 0.4508206E-07-0.361E-06
 d Force = 0.4163336E-16[-0.806E-01, 0.806E-01]  d Ewald  =-0.2273737E-12 0.227E-12

[...]

 d Force = 0.1358399E-04[-0.976E-02, 0.978E-02]  d Energy = 0.5035519E-04-0.368E-04
 d Force = 0.1519504E-07[-0.393E-01, 0.393E-01]  d Ewald  = 0.3422544E-03-0.342E-03

[...]

 d Force =-0.3574052E-03[-0.202E-01, 0.195E-01]  d Energy =-0.1007980E-03-0.257E-03
 d Force =-0.2053600E-02[-0.827E-01, 0.786E-01]  d Ewald  =-0.6845098E-03-0.137E-02

[...]

 d Force = 0.3169942E-02[-0.377E-02, 0.101E-01]  d Energy = 0.2057634E-02 0.111E-02
 d Force = 0.5786398E-01[ 0.744E-01, 0.413E-01]  d Ewald  = 0.5769433E-01 0.170E-03

[...]

 d Force =-0.2007293E-06[-0.755E-02, 0.755E-02]  d Energy =-0.1703601E-05 0.150E-05
 d Force = 0.0000000E+00[ 0.149E+00,-0.149E+00]  d Ewald  = 0.0000000E+00 0.000E+00

[...]

 d Force =-0.3076784E-02[-0.993E-02, 0.377E-02]  d Energy =-0.1998264E-02-0.108E-02
 d Force =-0.5735058E-01[-0.403E-01,-0.744E-01]  d Ewald  =-0.5735207E-01 0.150E-05

[...]

 d Force =-0.5514419E-06[-0.199E-01, 0.199E-01]  d Energy = 0.2327035E-06-0.784E-06
 d Force =-0.1318390E-15[-0.806E-01, 0.806E-01]  d Ewald  = 0.0000000E+00 0.000E+00

[...]

 d Force =-0.1410347E-04[-0.101E-01, 0.101E-01]  d Energy =-0.4977951E-04 0.357E-04
 d Force =-0.1981226E-07[-0.413E-01, 0.413E-01]  d Ewald  =-0.3422554E-03 0.342E-03

[...]

 d Force = 0.3544731E-03[-0.195E-01, 0.202E-01]  d Energy = 0.9916984E-04 0.255E-03
 d Force = 0.2053600E-02[-0.786E-01, 0.827E-01]  d Ewald  = 0.6845098E-03 0.137E-02

[...]

 d Force = 0.2989293E-02[-0.377E-02, 0.975E-02]  d Energy = 0.1951717E-02 0.104E-02
 d Force = 0.5683718E-01[ 0.744E-01, 0.393E-01]  d Ewald  = 0.5700982E-01-0.173E-03

 Finite differences progress:
  Degree of freedom:  12/ 12
  Displacement:        1/  2
  Total:              23/ 24
 FEWALD executed in parallel

[...]

 eigenvalue-minimisations  :  6224
 total energy-change (2. order) : 0.1337799E-04  (-0.8513620E-05)
 number of electron       8.0000000 magnetization       0.0000126
 augmentation part        0.1922516 magnetization      -0.0000077

[...]

 Broyden mixing:
  rms(total) = 0.13660E-03    rms(broyden)= 0.13650E-03
  rms(prec ) = 0.17324E-03
  weight for this iteration     100.00

 eigenvalues of (default mixing * dielectric matrix)
  average eigenvalue GAMMA=   1.2478
  2.5216  1.1118  1.5435  1.4798  0.9924  0.5824  0.5031

[...]

----------------------------------------- Iteration   25(   9)  ---------------------------------------

 eigenvalue-minimisations  :  6176
 total energy-change (2. order) :-0.2967126E-06  (-0.2477362E-07)
 number of electron       8.0000000 magnetization       0.0000150
 augmentation part        0.1922522 magnetization      -0.0000122

 Free energy of the ion-electron system (eV)
  alpha Z        PSCENC =         3.13486870
  Ewald energy   TEWEN  =      1302.37220600
  -1/2 Hartree   DENC   =     -1549.35837910
  -exchange  EXHF       =         0.00000000
  -V(xc)+E(xc)   XCENC  =        27.58774115
  PAW double counting   =       846.53072244     -847.89201516
  entropy T*S    EENTRO =        -0.00031343
  eigenvalues    EBANDS =       -95.14333633
  atomic energy  EATOM  =       294.30884690
  free energy    TOTEN  =       -18.45965884 eV

  energy without entropy =      -18.45934541  energy(sigma->0) =      -18.45950212

 average (electrostatic) potential at core
  the test charge radii are     0.6991
  (the norm of the test charge is              1.0000)
       1 -58.1606       2 -58.1605

 E-fermi :  -2.7208     XC(G=0):  -2.1809     alpha+bet : -1.9124

[...]

 spin component 2

[...]

 k-point  74 :       0.5000    0.5000    0.0000
  band No.  band energies     occupation
      1     -17.0268      1.00000
      2     -16.0069      1.00000
      3      -9.1637      1.00000
      4      -5.0945      1.00000
      5      -1.0406      0.00000
      6       4.7178      0.00000
      7       8.4118      0.00000
      8       8.5651      0.00000
      9       9.2633      0.00000
     10       9.4599      0.00000
     11       9.8939      0.00000
     12       9.8988      0.00000
     13      10.5794      0.00000
     14      10.7506      0.00000
     15      11.1717      0.00000
     16      11.2066      0.00000

[...]

 soft charge-density along one line, spin component           2
         0         1         2         3         4         5         6         7         8         9
 total charge-density along one line

------------------------ aborting loop because EDIFF is reached ----------------------------------------

[...]

  FORCE on cell =-STRESS in cart. coord.  units (eV):
  Direction    XX          YY          ZZ          XY          YZ          ZX
  Alpha Z     3.13487     3.13487     3.13487
  Ewald    1571.88057  1571.88057 -1841.38896     0.00000     0.00000    -0.00000
  Hartree  1538.09014  1538.09014 -1526.82286     0.00000     0.00000     0.00000
  E(xc)     -29.75470   -29.75470   -30.86931     0.00000    -0.00000     0.00000
  Local   -3195.50056 -3195.50049  3265.51651     0.00000    -0.00000    -0.00000
  n-local    -7.15792    -7.15793    -6.47758    -0.00000    -0.00000     0.00000
  augment    -0.78504    -0.78512    -0.72206     0.00000     0.00000     0.00000
  Kinetic   120.47179   120.47179   137.60281     0.00000     0.00000     0.00000
  Fock        0.00000     0.00000     0.00000     0.00000     0.00000     0.00000
  Total       0.37914     0.37913    -0.02656     0.00000     0.00000    -0.00000
  in kB       5.79536     5.79512    -0.40606     0.00000     0.00000    -0.00000

 VOLUME and BASIS-vectors are now :
  energy-cutoff  :      800.00
  volume of cell :      104.82
      direct lattice vectors                 reciprocal lattice vectors
     1.230000000 -2.130422493  0.000000000     0.406504065 -0.234695231  0.000000000
     1.230000000  2.130422493  0.000000000     0.406504065  0.234695231  0.000000000
     0.000000000  0.000000000 20.000000000     0.000000000  0.000000000  0.050000000

  length of vectors
     2.460000000  2.460000000 20.000000000     0.469390463  0.469390463  0.050000000

 FORCES acting on ions
    electron-ion (+dipol)            ewald-force                    non-local-force                 convergence-correction
   -.180E-09 -.138E-05 -.480E+01   -.308E-11 0.100E-08 0.496E+01   0.383E-08 0.428E-05 -.402E+00   0.526E-08 0.253E-06 -.495E-02
   -.168E-07 0.255E-05 0.481E+01   0.308E-11 -.100E-08 -.496E+01   0.875E-08 -.746E-05 0.403E+00   0.230E-09 -.563E-06 -.516E-02
   -.170E-07 0.117E-05 0.859E-02   0.162E-14 0.679E-15 0.000E+00   0.126E-07 -.318E-05 0.123E-02   0.549E-08 -.311E-06 -.101E-01

 POSITION                                       TOTAL-FORCE (eV/Angst)
      0.00000      0.00000      0.00000         0.000000      0.000004     -0.251435
      1.23000      0.71014     -0.01500        -0.000000     -0.000004      0.251435
    total drift:                                0.000000     -0.000002     -0.000299

  FREE ENERGIE OF THE ION-ELECTRON SYSTEM (eV)
  free  energy   TOTEN  =       -18.45965884 eV

  energy  without entropy=      -18.45934541  energy(sigma->0) =      -18.45950212

 d Force =-0.1969005E-06[-0.754E-02, 0.754E-02]  d Energy =-0.1716194E-05 0.152E-05
 d Force = 0.0000000E+00[ 0.149E+00,-0.149E+00]  d Ewald  = 0.0000000E+00 0.000E+00

 Finite differences progress:
  Degree of freedom:  12/ 12
  Displacement:        2/  2
  Total:              24/ 24

  ELASTIC MODULI  (kBar)
 Direction    XX          YY          ZZ          XY          YZ          ZX
 XX        1675.6403    444.6386      1.0666      0.0000      0.0000      0.0000
 YY         444.3155   1676.3736      1.1171     -0.0000      0.0000      0.0000
 ZZ          -0.0017      0.0284      0.0371     -0.0000     -0.0001     -0.0000
 XY           0.0105      0.0123     -0.0036    615.3383      0.0000     -0.0000
 YZ          -0.0154      0.0183      0.1696     -0.0733     -4.5383     -0.0014
 ZX          -0.1688      0.1154     -0.4372     -0.0428      0.0103      1.4917

  SYMMETRIZED ELASTIC MODULI (kBar)
 Direction    XX          YY          ZZ          XY          YZ          ZX
 XX        1675.6403    444.4771      0.5324      0.0053     -0.0077     -0.0844
 YY         444.4771   1676.3736      0.5728      0.0062      0.0091      0.0577
 ZZ           0.5324      0.5728      0.0371     -0.0018      0.0848     -0.2186
 XY           0.0053      0.0062     -0.0018    615.3383     -0.0366     -0.0214
 YZ          -0.0077      0.0091      0.0848     -0.0366     -4.5383      0.0044
 ZX          -0.0844      0.0577     -0.2186     -0.0214      0.0044      1.4917

 INTERNAL STRAIN TENSORS FROM STRAINED CELLS

 INTERNAL STRAIN TENSOR FOR ION    1 for displacements in x,y,z  (eV/Angst):
          X           Y           Z          XY          YZ          ZX
  x     0.00000    -0.00000    -0.00000     1.46082    -0.00272    -0.00155
  y     1.50361    -1.55842    -0.00056    -0.00001    -0.00062    -0.00536
  z     0.00000     0.00000     0.00000    -0.00000     0.00579     0.00002

[...]

 INTERNAL STRAIN TENSORS FROM DISPLACED ATOMS

[...]

 INTERNAL STRAIN TENSOR FOR ION    2 for displacements in x,y,z  (eV/Angst):
          X           Y           Z          XY          YZ          ZX
  x    -0.00041     0.00026     0.00333    -1.85097     0.00000     0.00000
  y    -1.83256     1.87003     0.00036    -0.00085    -0.00000    -0.00000
  z    -0.00023     0.00031    -0.00071     0.00000    -0.00004     0.00000

 Eigenvectors and eigenvalues of the dynamical matrix

   1 f  =   42.381237 THz   266.289165 2PiTHz 1413.685850 cm-1   175.274770 meV
             X         Y         Z           dx          dy          dz
      0.000000  0.000000  0.000000     0.082085    0.702444    0.000008
      1.230000  0.710141  0.000000    -0.082059   -0.702211   -0.000005

[...]

   3 f  =   26.119921 THz   164.116301 2PiTHz  871.266741 cm-1   108.023347 meV
             X         Y         Z           dx          dy          dz
      0.000000  0.000000  0.000000     0.000001    0.000006   -0.707162
      1.230000  0.710141  0.000000     0.000000   -0.000006    0.707051

   4 f/i=    0.002050 THz     0.012878 2PiTHz    0.068367 cm-1     0.008476 meV
             X         Y         Z           dx          dy          dz
      0.000000  0.000000  0.000000    -0.000528    0.010199   -0.706978
      1.230000  0.710141  0.000000    -0.000528    0.010199   -0.707089

[...]

   6 f/i=    0.007384 THz     0.046394 2PiTHz    0.246298 cm-1     0.030537 meV
             X         Y         Z           dx          dy          dz
      0.000000  0.000000  0.000000     0.705066   -0.052021   -0.001277
      1.230000  0.710141  0.000000     0.705312   -0.052040   -0.001278

 ELASTIC MODULI CONTR FROM IONIC RELAXATION (kBar)
 Direction    XX          YY          ZZ          XY          YZ          ZX
 XX          -1.1600      1.1837     -0.0001     -0.0005     -0.0000     -0.0000
 YY           1.1837     -1.2078      0.0001      0.0006      0.0000      0.0000
 ZZ          -0.0001      0.0001     -0.0000     -0.0000     -0.0000      0.0000
 XY          -0.0005      0.0006     -0.0000     -1.1835     -0.0000      0.0003
 YZ          -0.0000      0.0000     -0.0000     -0.0000     -0.0000      0.0000
 ZX          -0.0000      0.0000      0.0000      0.0003      0.0000     -0.0000

 TOTAL ELASTIC MODULI (kBar)
 Direction    XX          YY          ZZ          XY          YZ          ZX
 XX        1674.4803    445.6607      0.5323      0.0047     -0.0077     -0.0844
 YY         445.6607   1675.1658      0.5729      0.0067      0.0091      0.0577
 ZZ           0.5323      0.5729      0.0371     -0.0018      0.0848     -0.2186
 XY           0.0047      0.0067     -0.0018    614.1548     -0.0366     -0.0211
 YZ          -0.0077      0.0091      0.0848     -0.0366     -4.5383      0.0044
 ZX          -0.0844      0.0577     -0.2186     -0.0211      0.0044      1.4917

 writing wavefunctions

 total charge

[...]

 magnetization (x)

# of ion     s       p       d       tot
  1        0.000   0.000   0.000   0.000
  2       -0.000  -0.000   0.000  -0.000
tot        0.000   0.000   0.000   0.000